MINIMIZE
- 280 y[0] - 782 y[1] - 372 y[2] - 631 y[3] - 618 y[4] - 896 y[5]
   - 875 y[6] - 412 y[7] - 796 y[8] - 746 y[9] - 466 y[10]
   - 1001 y[11] - 165 y[12] - 882 y[13] - 332 y[14] - 692 y[15]
   - 269 y[16] - 599 y[17] - 642 y[18] - 235 y[19]
SUBJECT TO
primal_upper: 180 y[0] + 18.0 z[0] + 682 y[1] + 68.0 z[1] + 272 y[2]
   + 27.0 z[2] + 531 y[3] + 53.0 z[3] + 518 y[4] + 52.0 z[4]
   + 796 y[5] + 80.0 z[5] + 775 y[6] + 78.0 z[6] + 312 y[7]
   + 31.0 z[7] + 696 y[8] + 70.0 z[8] + 646 y[9] + 65.0 z[9]
   + 366 y[10] + 37.0 z[10] + 901 y[11] + 90.0 z[11] + 65 y[12]
   + 6.0 z[12] + 782 y[13] + 78.0 z[13] + 232 y[14] + 23.0 z[14]
   + 592 y[15] + 59.0 z[15] + 169 y[16] + 17.0 z[16] + 499 y[17]
   + 50.0 z[17] + 542 y[18] + 54.0 z[18] + 135 y[19] + 14.0 z[19] <= 1938
mccormick1[0]: - u[0] + z[0] <= 0
mccormick2[0]: - y[0] + z[0] <= 0
mccormick3[0]: u[0] + y[0] - z[0] <= 1
mccormick1[1]: - u[1] + z[1] <= 0
mccormick2[1]: - y[1] + z[1] <= 0
mccormick3[1]: u[1] + y[1] - z[1] <= 1
mccormick1[2]: - u[2] + z[2] <= 0
mccormick2[2]: - y[2] + z[2] <= 0
mccormick3[2]: u[2] + y[2] - z[2] <= 1
mccormick1[3]: - u[3] + z[3] <= 0
mccormick2[3]: - y[3] + z[3] <= 0
mccormick3[3]: u[3] + y[3] - z[3] <= 1
mccormick1[4]: - u[4] + z[4] <= 0
mccormick2[4]: - y[4] + z[4] <= 0
mccormick3[4]: u[4] + y[4] - z[4] <= 1
mccormick1[5]: - u[5] + z[5] <= 0
mccormick2[5]: - y[5] + z[5] <= 0
mccormick3[5]: u[5] + y[5] - z[5] <= 1
mccormick1[6]: - u[6] + z[6] <= 0
mccormick2[6]: - y[6] + z[6] <= 0
mccormick3[6]: u[6] + y[6] - z[6] <= 1
mccormick1[7]: - u[7] + z[7] <= 0
mccormick2[7]: - y[7] + z[7] <= 0
mccormick3[7]: u[7] + y[7] - z[7] <= 1
mccormick1[8]: - u[8] + z[8] <= 0
mccormick2[8]: - y[8] + z[8] <= 0
mccormick3[8]: u[8] + y[8] - z[8] <= 1
mccormick1[9]: - u[9] + z[9] <= 0
mccormick2[9]: - y[9] + z[9] <= 0
mccormick3[9]: u[9] + y[9] - z[9] <= 1
mccormick1[10]: - u[10] + z[10] <= 0
mccormick2[10]: - y[10] + z[10] <= 0
mccormick3[10]: u[10] + y[10] - z[10] <= 1
mccormick1[11]: - u[11] + z[11] <= 0
mccormick2[11]: - y[11] + z[11] <= 0
mccormick3[11]: u[11] + y[11] - z[11] <= 1
mccormick1[12]: - u[12] + z[12] <= 0
mccormick2[12]: - y[12] + z[12] <= 0
mccormick3[12]: u[12] + y[12] - z[12] <= 1
mccormick1[13]: - u[13] + z[13] <= 0
mccormick2[13]: - y[13] + z[13] <= 0
mccormick3[13]: u[13] + y[13] - z[13] <= 1
mccormick1[14]: - u[14] + z[14] <= 0
mccormick2[14]: - y[14] + z[14] <= 0
mccormick3[14]: u[14] + y[14] - z[14] <= 1
mccormick1[15]: - u[15] + z[15] <= 0
mccormick2[15]: - y[15] + z[15] <= 0
mccormick3[15]: u[15] + y[15] - z[15] <= 1
mccormick1[16]: - u[16] + z[16] <= 0
mccormick2[16]: - y[16] + z[16] <= 0
mccormick3[16]: u[16] + y[16] - z[16] <= 1
mccormick1[17]: - u[17] + z[17] <= 0
mccormick2[17]: - y[17] + z[17] <= 0
mccormick3[17]: u[17] + y[17] - z[17] <= 1
mccormick1[18]: - u[18] + z[18] <= 0
mccormick2[18]: - y[18] + z[18] <= 0
mccormick3[18]: u[18] + y[18] - z[18] <= 1
mccormick1[19]: - u[19] + z[19] <= 0
mccormick2[19]: - y[19] + z[19] <= 0
mccormick3[19]: u[19] + y[19] - z[19] <= 1
UNCERTAINTY SUBJECT TO
primal_lower0: - 13 y[0] + 87 u[0] + - 11 y[1] + 664 u[1]
   + - 32 y[2] + 912 u[2] + - 60 y[3] + 748 u[3]
   + - 17 y[4] + 690 u[4] + - 22 y[5] + 522 u[5]
   + - 68 y[6] + 263 u[6] + - 50 y[7] + 338 u[7]
   + - 46 y[8] + 116 u[8] + - 41 y[9] + 99 u[9]
   + - 7 y[10] + 997 u[10] + - 74 y[11] + 511 u[11]
   + - 26 y[12] + 213 u[12] + - 2 y[13] + 379 u[13]
   + - 60 y[14] + 983 u[14] + - 81 y[15] + 377 u[15]
   + - 46 y[16] + 37 u[16] + - 48 y[17] + 616 u[17]
   + - 59 y[18] + 126 u[18] + - 56 y[19] + 296 u[19] <= 1794
BOUNDS
0 <= y[0] <= 1
0 <= u[0] <= 1
0 <= z[0] <= 1
0 <= y[1] <= 1
0 <= u[1] <= 1
0 <= z[1] <= 1
0 <= y[2] <= 1
0 <= u[2] <= 1
0 <= z[2] <= 1
0 <= y[3] <= 1
0 <= u[3] <= 1
0 <= z[3] <= 1
0 <= y[4] <= 1
0 <= u[4] <= 1
0 <= z[4] <= 1
0 <= y[5] <= 1
0 <= u[5] <= 1
0 <= z[5] <= 1
0 <= y[6] <= 1
0 <= u[6] <= 1
0 <= z[6] <= 1
0 <= y[7] <= 1
0 <= u[7] <= 1
0 <= z[7] <= 1
0 <= y[8] <= 1
0 <= u[8] <= 1
0 <= z[8] <= 1
0 <= y[9] <= 1
0 <= u[9] <= 1
0 <= z[9] <= 1
0 <= y[10] <= 1
0 <= u[10] <= 1
0 <= z[10] <= 1
0 <= y[11] <= 1
0 <= u[11] <= 1
0 <= z[11] <= 1
0 <= y[12] <= 1
0 <= u[12] <= 1
0 <= z[12] <= 1
0 <= y[13] <= 1
0 <= u[13] <= 1
0 <= z[13] <= 1
0 <= y[14] <= 1
0 <= u[14] <= 1
0 <= z[14] <= 1
0 <= y[15] <= 1
0 <= u[15] <= 1
0 <= z[15] <= 1
0 <= y[16] <= 1
0 <= u[16] <= 1
0 <= z[16] <= 1
0 <= y[17] <= 1
0 <= u[17] <= 1
0 <= z[17] <= 1
0 <= y[18] <= 1
0 <= u[18] <= 1
0 <= z[18] <= 1
0 <= y[19] <= 1
0 <= u[19] <= 1
0 <= z[19] <= 1
BINARIES
y[0] y[1] y[2] y[3] y[4] y[5] y[6] y[7] y[8] y[9] y[10] y[11] y[12]
 y[13] y[14] y[15] y[16] y[17] y[18] y[19] u[0] u[1] u[2] u[3] u[4]
 u[5] u[6] u[7] u[8] u[9] u[10] u[11] u[12] u[13] u[14] u[15] u[16]
 u[17] u[18] u[19] z[0] z[1] z[2] z[3] z[4] z[5] z[6] z[7] z[8] z[9]
 z[10] z[11] z[12] z[13] z[14] z[15] z[16] z[17] z[18] z[19]
EXISTS
y[0] y[1] y[2] y[3] y[4] y[5] y[6] y[7] y[8] y[9] y[10] y[11] y[12]
 y[13] y[14] y[15] y[16] y[17] y[18] y[19] z[0] z[1] z[2] z[3] z[4]
 z[5] z[6] z[7] z[8] z[9] z[10] z[11] z[12] z[13] z[14] z[15] z[16]
 z[17] z[18] z[19]
ALL
u[0] u[1] u[2] u[3] u[4] u[5] u[6] u[7] u[8] u[9] u[10] u[11] u[12]
 u[13] u[14] u[15] u[16] u[17] u[18] u[19]
ORDER
y[0] y[1] y[2] y[3] y[4] y[5] y[6] y[7] y[8] y[9] y[10] y[11] y[12]
 y[13] y[14] y[15] y[16] y[17] y[18] y[19] u[0] u[1] u[2] u[3] u[4]
 u[5] u[6] u[7] u[8] u[9] u[10] u[11] u[12] u[13] u[14] u[15] u[16]
 u[17] u[18] u[19] z[0] z[1] z[2] z[3] z[4] z[5] z[6] z[7] z[8] z[9]
 z[10] z[11] z[12] z[13] z[14] z[15] z[16] z[17] z[18] z[19]
END
